p cnf 7230 16
466 -703 0
466 -706 0
466 -709 0
-466 -701 702 0
466 -712 0
-466 -704 705 0
-466 -707 708 0
-466 -710 711 0
-702 703 0
710 -712 0
707 -709 0
-705 706 0
704 -706 0
701 -703 0
-708 709 0
-711 712 0
